W=8;
H=5;

MAX_TIME=21;
MAX_TRACKS=12;

TARGET=(5,8);

TRAINS=[(5,1,TOP),(1,1,RIGHT)];

INIT_POS=[
(1,1,STRAIGHT_RL),
(1,7,STRAIGHT_RL),
(1,8,CORNER_DL),
(2,7,CORNER_DR),
(2,8,CORNER_TL),
(3,2,STRAIGHT_RL),
(3,5,STRAIGHT_RL),
(3,7,CORNER_TR),
(3,8,CORNER_DL),
(4,7,CORNER_DR),
(4,8,CORNER_TL),
(5,1,STRAIGHT_TD),
(5,7,CORNER_TR),
(5,8,STRAIGHT_RL),
];
TUNNEL_PAIRS=[];

GATES=[
(1,7,1,false),
];
ACTIVATIONS=[
(3,2,1),
(3,5,1),
];

DSWITCHES=[];

STATIONS=[];
